4 
5  17 37 55 
6  10 23 38 53 
7  08 23 38 53 
8  08 23 38 53 
9  09 23 38 53 
10  08 23 37 52 
11  07 22 37 52 
12  07 22 37 52 
13  07 22 37 52 
14  07 22 37 52 
15  07 22 37 52 
16  07 22 37 52 
17  07 22 37 52 
18  07 22 38 53 
19  08 23 38 53 
20  08 23 38 53 
21  11 26 38 53 
22  08 23 42 57 
23  12 
0 
